p sp 100 294
a 1 55 1
a 1 60 1
a 1 61 1
a 1 62 1
a 17 55 1
a 17 30 1
a 17 46 1
a 17 68 1
a 11 17 1
a 11 41 1
a 11 65 1
a 11 53 1
a 11 59 1
a 11 37 1
a 11 89 1
a 41 53 1
a 41 43 1
a 41 63 1
a 41 88 1
a 41 66 1
a 41 60 1
a 53 91 1
a 46 53 1
a 46 93 1
a 46 82 1
a 46 100 1
a 46 85 1
a 30 46 1
a 30 58 1
a 30 93 1
a 4 30 1
a 4 5 1
a 4 67 1
a 4 33 1
a 4 51 1
a 4 57 1
a 4 58 1
a 4 86 1
a 5 93 1
a 5 56 1
a 5 67 1
a 5 91 1
a 47 93 1
a 47 86 1
a 47 61 1
a 86 92 1
a 48 86 1
a 48 57 1
a 39 48 1
a 39 97 1
a 39 71 1
a 39 77 1
a 39 59 1
a 22 39 1
a 22 76 1
a 22 24 1
a 22 65 1
a 22 81 1
a 22 96 1
a 6 22 1
a 6 21 1
a 6 28 1
a 6 20 1
a 6 49 1
a 6 57 1
a 3 6 1
a 3 14 1
a 3 75 1
a 3 38 1
a 14 58 1
a 14 60 1
a 2 14 1
a 2 10 1
a 2 80 1
a 2 63 1
a 2 75 1
a 2 97 1
a 10 30 1
a 10 20 1
a 10 79 1
a 7 30 1
a 7 61 1
a 7 97 1
a 7 69 1
a 7 38 1
a 7 81 1
a 61 72 1
a 32 61 1
a 32 58 1
a 32 35 1
a 32 74 1
a 32 89 1
a 32 76 1
a 32 97 1
a 58 96 1
a 60 68 1
a 60 62 1
a 72 92 1
a 72 85 1
a 72 95 1
a 72 96 1
a 33 72 1
a 33 45 1
a 33 84 1
a 33 49 1
a 33 50 1
a 33 99 1
a 56 72 1
a 27 56 1
a 27 84 1
a 27 73 1
a 27 53 1
a 21 27 1
a 21 43 1
a 21 50 1
a 28 67 1
a 28 75 1
a 28 78 1
a 20 28 1
a 20 49 1
a 20 37 1
a 20 25 1
a 20 65 1
a 20 30 1
a 20 82 1
a 49 94 1
a 49 90 1
a 18 20 1
a 18 77 1
a 18 58 1
a 18 64 1
a 18 31 1
a 76 77 1
a 76 95 1
a 76 80 1
a 24 29 1
a 65 80 1
a 65 90 1
a 65 94 1
a 59 64 1
a 59 74 1
a 59 76 1
a 59 78 1
a 59 92 1
a 59 99 1
a 13 59 1
a 13 74 1
a 37 59 1
a 37 51 1
a 25 43 1
a 25 52 1
a 25 89 1
a 80 89 1
a 63 92 1
a 63 87 1
a 63 81 1
a 92 97 1
a 16 92 1
a 16 63 1
a 16 70 1
a 12 16 1
a 12 45 1
a 12 73 1
a 12 83 1
a 12 98 1
a 45 58 1
a 45 79 1
a 45 74 1
a 45 83 1
a 45 97 1
a 84 94 1
a 84 98 1
a 26 27 1
a 26 75 1
a 26 50 1
a 26 98 1
a 26 60 1
a 26 31 1
a 29 75 1
a 29 40 1
a 29 53 1
a 29 55 1
a 29 76 1
a 29 67 1
a 29 99 1
a 40 45 1
a 40 66 1
a 40 82 1
a 40 96 1
a 34 40 1
a 34 74 1
a 34 66 1
a 34 75 1
a 34 56 1
a 74 79 1
a 74 91 1
a 35 74 1
a 35 55 1
a 35 43 1
a 35 76 1
a 79 84 1
a 79 86 1
a 44 79 1
a 44 57 1
a 44 49 1
a 44 88 1
a 23 44 1
a 23 29 1
a 23 76 1
a 23 47 1
a 23 73 1
a 43 62 1
a 43 53 1
a 43 92 1
a 43 60 1
a 88 97 1
a 88 98 1
a 57 88 1
a 57 87 1
a 62 88 1
a 19 97 1
a 19 20 1
a 19 40 1
a 19 99 1
a 19 88 1
a 19 60 1
a 19 78 1
a 52 93 1
a 52 66 1
a 52 78 1
a 52 85 1
a 66 83 1
a 66 96 1
a 83 98 1
a 83 92 1
a 83 84 1
a 82 83 1
a 82 100 1
a 89 98 1
a 67 97 1
a 67 99 1
a 67 76 1
a 67 90 1
a 51 86 1
a 50 51 1
a 36 96 1
a 36 97 1
a 36 91 1
a 71 90 1
a 71 76 1
a 42 71 1
a 8 67 1
a 8 51 1
a 8 61 1
a 8 71 1
a 8 99 1
a 8 73 1
a 54 99 1
a 54 89 1
a 54 56 1
a 38 75 1
a 38 55 1
a 38 79 1
a 38 80 1
a 38 96 1
a 70 97 1
a 70 72 1
a 81 97 1
a 81 100 1
a 81 92 1
a 94 100 1
a 91 94 1
a 91 97 1
a 68 75 1
a 68 80 1
a 68 84 1
a 68 90 1
a 68 86 1
a 68 89 1
a 9 60 1
a 9 12 1
a 73 77 1
a 73 91 1
a 73 93 1
a 78 86 1
a 78 89 1
a 64 89 1
a 64 93 1
a 15 35 1
a 15 41 1
a 15 51 1
a 31 38 1
a 31 68 1
a 31 84 1
